74 92 44 38 99 54 27 73 97 41 94 32 11 22 30 12 50 28 2 18 63 98 36 85 49 23 15 81 89 48 1 56 68 10 13 96 20 37 55 51 3 77 39 70 0 65 67 45 59 9 26 29 19 17 25 35 24 69 42 78 33 46 57 5 87 43 88 7 79 14 71 16 4 66 47 80 62 21 40 72 52 82 58 64 90 34 53 31 75 76 86 93 95 8 6 60 61 84 83 91